p td 27 81
2 1
3 1
4 2
4 1
5 2
6 5
7 5
7 6
8 2
9 1
10 3
10 5
10 4
10 1
11 10
11 3
12 6
12 11
13 10
14 8
14 12
14 3
15 5
15 1
15 14
15 11
15 3
15 10
16 4
16 15
16 6
16 1
17 16
17 1
17 8
17 13
17 2
18 4
18 2
18 16
19 3
19 1
19 14
19 8
19 4
20 5
20 4
21 7
21 14
21 9
21 3
22 21
22 13
22 15
22 16
23 18
23 16
23 1
23 15
24 6
24 8
24 4
24 22
25 3
25 24
25 20
25 17
25 14
26 21
26 3
26 19
26 1
27 5
27 15
27 2
27 6
27 14
27 1
27 11
27 24
27 4
